Route #1: 2 4 76 79 7 21 58 66 13 80 17 12 27 70 69 24 42 31 62 36 9 35 72 20 60 28 44 26 32 40 78 11 18 38 19 3
Route #2: 1 23 67 43 52 51 71 47 48 57 65 5 59 54 68 39 73 34 46 10 77 33
Route #3: 50 37 14 61 6 63 45
Route #4: 41 22 53 75 29 8 49 15 64 30 25 55 16 56
Route #5: 74
Route #6: 
Route #7: 
Route #8: 
Route #9: 
Route #10: 
cost 2819.8948840248354
